(set-info :category "industrial")
(set-info :status sat)
(declare-fun x02 () (_ BitVec 8))
(declare-fun x04 () (_ BitVec 8))
(declare-fun x05 () (_ BitVec 8))
(declare-fun x06 () (_ BitVec 8))
(declare-fun x08 () (_ BitVec 8))
(declare-fun x10 () (_ BitVec 8))
(declare-fun x11 () (_ BitVec 8))
(declare-fun x13 () (_ BitVec 8))
(declare-fun x14 () (_ BitVec 8))
(declare-fun x15 () (_ BitVec 8))
(declare-fun x18 () (_ BitVec 8))
(declare-fun x21 () (_ BitVec 8))
(declare-fun x22 () (_ BitVec 8))
(declare-fun x26 () (_ BitVec 8))
(declare-fun x27 () (_ BitVec 8))
(declare-fun x30 () (_ BitVec 8))
(declare-fun x31 () (_ BitVec 8))
(declare-fun x35 () (_ BitVec 8))
(declare-fun x36 () (_ BitVec 8))
(declare-fun x38 () (_ BitVec 8))
(declare-fun x43 () (_ BitVec 8))
(declare-fun x44 () (_ BitVec 8))
(declare-fun x46 () (_ BitVec 8))
(declare-fun x47 () (_ BitVec 8))
(declare-fun x50 () (_ BitVec 8))
(declare-fun x52 () (_ BitVec 8))
(declare-fun x53 () (_ BitVec 8))
(declare-fun x54 () (_ BitVec 8))
(declare-fun x57 () (_ BitVec 8))
(declare-fun x58 () (_ BitVec 8))
(declare-fun x61 () (_ BitVec 8))
(declare-fun x63 () (_ BitVec 8))
(declare-fun x64 () (_ BitVec 8))
(declare-fun x66 () (_ BitVec 8))
(declare-fun x67 () (_ BitVec 8))
(declare-fun x70 () (_ BitVec 8))
(declare-fun x71 () (_ BitVec 8))
(declare-fun x72 () (_ BitVec 8))
(declare-fun x75 () (_ BitVec 8))
(declare-fun x76 () (_ BitVec 8))
(declare-fun x77 () (_ BitVec 8))
(declare-fun x81 () (_ BitVec 8))
(declare-fun x82 () (_ BitVec 8))
(declare-fun x83 () (_ BitVec 8))
(declare-fun x87 () (_ BitVec 8))
(declare-fun x88 () (_ BitVec 8))
(assert (bvult x02 (_ bv9 8)))
(assert (bvult x04 (_ bv9 8)))
(assert (bvult x05 (_ bv9 8)))
(assert (bvult x06 (_ bv9 8)))
(assert (bvult x08 (_ bv9 8)))
(assert (bvult x10 (_ bv9 8)))
(assert (bvult x11 (_ bv9 8)))
(assert (bvult x13 (_ bv9 8)))
(assert (bvult x14 (_ bv9 8)))
(assert (bvult x15 (_ bv9 8)))
(assert (bvult x18 (_ bv9 8)))
(assert (bvult x21 (_ bv9 8)))
(assert (bvult x22 (_ bv9 8)))
(assert (bvult x26 (_ bv9 8)))
(assert (bvult x27 (_ bv9 8)))
(assert (bvult x30 (_ bv9 8)))
(assert (bvult x31 (_ bv9 8)))
(assert (bvult x35 (_ bv9 8)))
(assert (bvult x36 (_ bv9 8)))
(assert (bvult x38 (_ bv9 8)))
(assert (bvult x43 (_ bv9 8)))
(assert (bvult x44 (_ bv9 8)))
(assert (bvult x46 (_ bv9 8)))
(assert (bvult x47 (_ bv9 8)))
(assert (bvult x50 (_ bv9 8)))
(assert (bvult x52 (_ bv9 8)))
(assert (bvult x53 (_ bv9 8)))
(assert (bvult x54 (_ bv9 8)))
(assert (bvult x57 (_ bv9 8)))
(assert (bvult x58 (_ bv9 8)))
(assert (bvult x61 (_ bv9 8)))
(assert (bvult x63 (_ bv9 8)))
(assert (bvult x64 (_ bv9 8)))
(assert (bvult x66 (_ bv9 8)))
(assert (bvult x67 (_ bv9 8)))
(assert (bvult x70 (_ bv9 8)))
(assert (bvult x71 (_ bv9 8)))
(assert (bvult x72 (_ bv9 8)))
(assert (bvult x75 (_ bv9 8)))
(assert (bvult x76 (_ bv9 8)))
(assert (bvult x77 (_ bv9 8)))
(assert (bvult x81 (_ bv9 8)))
(assert (bvult x82 (_ bv9 8)))
(assert (bvult x83 (_ bv9 8)))
(assert (bvult x87 (_ bv9 8)))
(assert (bvult x88 (_ bv9 8)))
(assert (not (= (_ bv3 8) (_ bv7 8))))
(assert (not (= (_ bv3 8) x02)))
(assert (not (= (_ bv3 8) (_ bv5 8))))
(assert (not (= (_ bv3 8) x04)))
(assert (not (= (_ bv3 8) x05)))
(assert (not (= (_ bv3 8) x06)))
(assert (not (= (_ bv3 8) (_ bv4 8))))
(assert (not (= (_ bv3 8) x08)))
(assert (not (= (_ bv7 8) x02)))
(assert (not (= (_ bv7 8) (_ bv5 8))))
(assert (not (= (_ bv7 8) x04)))
(assert (not (= (_ bv7 8) x05)))
(assert (not (= (_ bv7 8) x06)))
(assert (not (= (_ bv7 8) (_ bv4 8))))
(assert (not (= (_ bv7 8) x08)))
(assert (not (= x02 (_ bv5 8))))
(assert (not (= x02 x04)))
(assert (not (= x02 x05)))
(assert (not (= x02 x06)))
(assert (not (= x02 (_ bv4 8))))
(assert (not (= x02 x08)))
(assert (not (= (_ bv5 8) x04)))
(assert (not (= (_ bv5 8) x05)))
(assert (not (= (_ bv5 8) x06)))
(assert (not (= (_ bv5 8) (_ bv4 8))))
(assert (not (= (_ bv5 8) x08)))
(assert (not (= x04 x05)))
(assert (not (= x04 x06)))
(assert (not (= x04 (_ bv4 8))))
(assert (not (= x04 x08)))
(assert (not (= x05 x06)))
(assert (not (= x05 (_ bv4 8))))
(assert (not (= x05 x08)))
(assert (not (= x06 (_ bv4 8))))
(assert (not (= x06 x08)))
(assert (not (= (_ bv4 8) x08)))
(assert (not (= x10 x11)))
(assert (not (= x10 (_ bv9 8))))
(assert (not (= x10 x13)))
(assert (not (= x10 x14)))
(assert (not (= x10 x15)))
(assert (not (= x10 (_ bv6 8))))
(assert (not (= x10 (_ bv1 8))))
(assert (not (= x10 x18)))
(assert (not (= x11 (_ bv9 8))))
(assert (not (= x11 x13)))
(assert (not (= x11 x14)))
(assert (not (= x11 x15)))
(assert (not (= x11 (_ bv6 8))))
(assert (not (= x11 (_ bv1 8))))
(assert (not (= x11 x18)))
(assert (not (= (_ bv9 8) x13)))
(assert (not (= (_ bv9 8) x14)))
(assert (not (= (_ bv9 8) x15)))
(assert (not (= (_ bv9 8) (_ bv6 8))))
(assert (not (= (_ bv9 8) (_ bv1 8))))
(assert (not (= (_ bv9 8) x18)))
(assert (not (= x13 x14)))
(assert (not (= x13 x15)))
(assert (not (= x13 (_ bv6 8))))
(assert (not (= x13 (_ bv1 8))))
(assert (not (= x13 x18)))
(assert (not (= x14 x15)))
(assert (not (= x14 (_ bv6 8))))
(assert (not (= x14 (_ bv1 8))))
(assert (not (= x14 x18)))
(assert (not (= x15 (_ bv6 8))))
(assert (not (= x15 (_ bv1 8))))
(assert (not (= x15 x18)))
(assert (not (= (_ bv6 8) (_ bv1 8))))
(assert (not (= (_ bv6 8) x18)))
(assert (not (= (_ bv1 8) x18)))
(assert (not (= (_ bv1 8) x21)))
(assert (not (= (_ bv1 8) x22)))
(assert (not (= (_ bv1 8) (_ bv4 8))))
(assert (not (= (_ bv1 8) (_ bv8 8))))
(assert (not (= (_ bv1 8) (_ bv9 8))))
(assert (not (= (_ bv1 8) x26)))
(assert (not (= (_ bv1 8) x27)))
(assert (not (= (_ bv1 8) (_ bv2 8))))
(assert (not (= x21 x22)))
(assert (not (= x21 (_ bv4 8))))
(assert (not (= x21 (_ bv8 8))))
(assert (not (= x21 (_ bv9 8))))
(assert (not (= x21 x26)))
(assert (not (= x21 x27)))
(assert (not (= x21 (_ bv2 8))))
(assert (not (= x22 (_ bv4 8))))
(assert (not (= x22 (_ bv8 8))))
(assert (not (= x22 (_ bv9 8))))
(assert (not (= x22 x26)))
(assert (not (= x22 x27)))
(assert (not (= x22 (_ bv2 8))))
(assert (not (= (_ bv4 8) (_ bv8 8))))
(assert (not (= (_ bv4 8) (_ bv9 8))))
(assert (not (= (_ bv4 8) x26)))
(assert (not (= (_ bv4 8) x27)))
(assert (not (= (_ bv4 8) (_ bv2 8))))
(assert (not (= (_ bv8 8) (_ bv9 8))))
(assert (not (= (_ bv8 8) x26)))
(assert (not (= (_ bv8 8) x27)))
(assert (not (= (_ bv8 8) (_ bv2 8))))
(assert (not (= (_ bv9 8) x26)))
(assert (not (= (_ bv9 8) x27)))
(assert (not (= (_ bv9 8) (_ bv2 8))))
(assert (not (= x26 x27)))
(assert (not (= x26 (_ bv2 8))))
(assert (not (= x27 (_ bv2 8))))
(assert (not (= x30 x31)))
(assert (not (= x30 (_ bv5 8))))
(assert (not (= x30 (_ bv9 8))))
(assert (not (= x30 (_ bv4 8))))
(assert (not (= x30 x35)))
(assert (not (= x30 x36)))
(assert (not (= x30 (_ bv6 8))))
(assert (not (= x30 x38)))
(assert (not (= x31 (_ bv5 8))))
(assert (not (= x31 (_ bv9 8))))
(assert (not (= x31 (_ bv4 8))))
(assert (not (= x31 x35)))
(assert (not (= x31 x36)))
(assert (not (= x31 (_ bv6 8))))
(assert (not (= x31 x38)))
(assert (not (= (_ bv5 8) (_ bv9 8))))
(assert (not (= (_ bv5 8) (_ bv4 8))))
(assert (not (= (_ bv5 8) x35)))
(assert (not (= (_ bv5 8) x36)))
(assert (not (= (_ bv5 8) (_ bv6 8))))
(assert (not (= (_ bv5 8) x38)))
(assert (not (= (_ bv9 8) (_ bv4 8))))
(assert (not (= (_ bv9 8) x35)))
(assert (not (= (_ bv9 8) x36)))
(assert (not (= (_ bv9 8) (_ bv6 8))))
(assert (not (= (_ bv9 8) x38)))
(assert (not (= (_ bv4 8) x35)))
(assert (not (= (_ bv4 8) x36)))
(assert (not (= (_ bv4 8) (_ bv6 8))))
(assert (not (= (_ bv4 8) x38)))
(assert (not (= x35 x36)))
(assert (not (= x35 (_ bv6 8))))
(assert (not (= x35 x38)))
(assert (not (= x36 (_ bv6 8))))
(assert (not (= x36 x38)))
(assert (not (= (_ bv6 8) x38)))
(assert (not (= (_ bv7 8) (_ bv8 8))))
(assert (not (= (_ bv7 8) (_ bv1 8))))
(assert (not (= (_ bv7 8) x43)))
(assert (not (= (_ bv7 8) x44)))
(assert (not (= (_ bv7 8) (_ bv3 8))))
(assert (not (= (_ bv7 8) x46)))
(assert (not (= (_ bv7 8) x47)))
(assert (not (= (_ bv7 8) (_ bv4 8))))
(assert (not (= (_ bv8 8) (_ bv1 8))))
(assert (not (= (_ bv8 8) x43)))
(assert (not (= (_ bv8 8) x44)))
(assert (not (= (_ bv8 8) (_ bv3 8))))
(assert (not (= (_ bv8 8) x46)))
(assert (not (= (_ bv8 8) x47)))
(assert (not (= (_ bv8 8) (_ bv4 8))))
(assert (not (= (_ bv1 8) x43)))
(assert (not (= (_ bv1 8) x44)))
(assert (not (= (_ bv1 8) (_ bv3 8))))
(assert (not (= (_ bv1 8) x46)))
(assert (not (= (_ bv1 8) x47)))
(assert (not (= (_ bv1 8) (_ bv4 8))))
(assert (not (= x43 x44)))
(assert (not (= x43 (_ bv3 8))))
(assert (not (= x43 x46)))
(assert (not (= x43 x47)))
(assert (not (= x43 (_ bv4 8))))
(assert (not (= x44 (_ bv3 8))))
(assert (not (= x44 x46)))
(assert (not (= x44 x47)))
(assert (not (= x44 (_ bv4 8))))
(assert (not (= (_ bv3 8) x46)))
(assert (not (= (_ bv3 8) x47)))
(assert (not (= (_ bv3 8) (_ bv4 8))))
(assert (not (= x46 x47)))
(assert (not (= x46 (_ bv4 8))))
(assert (not (= x47 (_ bv4 8))))
(assert (not (= x50 (_ bv9 8))))
(assert (not (= x50 x52)))
(assert (not (= x50 x53)))
(assert (not (= x50 x54)))
(assert (not (= x50 (_ bv2 8))))
(assert (not (= x50 (_ bv5 8))))
(assert (not (= x50 x57)))
(assert (not (= x50 x58)))
(assert (not (= (_ bv9 8) x52)))
(assert (not (= (_ bv9 8) x53)))
(assert (not (= (_ bv9 8) x54)))
(assert (not (= (_ bv9 8) (_ bv2 8))))
(assert (not (= (_ bv9 8) (_ bv5 8))))
(assert (not (= (_ bv9 8) x57)))
(assert (not (= (_ bv9 8) x58)))
(assert (not (= x52 x53)))
(assert (not (= x52 x54)))
(assert (not (= x52 (_ bv2 8))))
(assert (not (= x52 (_ bv5 8))))
(assert (not (= x52 x57)))
(assert (not (= x52 x58)))
(assert (not (= x53 x54)))
(assert (not (= x53 (_ bv2 8))))
(assert (not (= x53 (_ bv5 8))))
(assert (not (= x53 x57)))
(assert (not (= x53 x58)))
(assert (not (= x54 (_ bv2 8))))
(assert (not (= x54 (_ bv5 8))))
(assert (not (= x54 x57)))
(assert (not (= x54 x58)))
(assert (not (= (_ bv2 8) (_ bv5 8))))
(assert (not (= (_ bv2 8) x57)))
(assert (not (= (_ bv2 8) x58)))
(assert (not (= (_ bv5 8) x57)))
(assert (not (= (_ bv5 8) x58)))
(assert (not (= x57 x58)))
(assert (not (= (_ bv5 8) x61)))
(assert (not (= (_ bv5 8) (_ bv3 8))))
(assert (not (= (_ bv5 8) x63)))
(assert (not (= (_ bv5 8) x64)))
(assert (not (= (_ bv5 8) (_ bv1 8))))
(assert (not (= (_ bv5 8) x66)))
(assert (not (= (_ bv5 8) x67)))
(assert (not (= (_ bv5 8) (_ bv7 8))))
(assert (not (= x61 (_ bv3 8))))
(assert (not (= x61 x63)))
(assert (not (= x61 x64)))
(assert (not (= x61 (_ bv1 8))))
(assert (not (= x61 x66)))
(assert (not (= x61 x67)))
(assert (not (= x61 (_ bv7 8))))
(assert (not (= (_ bv3 8) x63)))
(assert (not (= (_ bv3 8) x64)))
(assert (not (= (_ bv3 8) (_ bv1 8))))
(assert (not (= (_ bv3 8) x66)))
(assert (not (= (_ bv3 8) x67)))
(assert (not (= (_ bv3 8) (_ bv7 8))))
(assert (not (= x63 x64)))
(assert (not (= x63 (_ bv1 8))))
(assert (not (= x63 x66)))
(assert (not (= x63 x67)))
(assert (not (= x63 (_ bv7 8))))
(assert (not (= x64 (_ bv1 8))))
(assert (not (= x64 x66)))
(assert (not (= x64 x67)))
(assert (not (= x64 (_ bv7 8))))
(assert (not (= (_ bv1 8) x66)))
(assert (not (= (_ bv1 8) x67)))
(assert (not (= (_ bv1 8) (_ bv7 8))))
(assert (not (= x66 x67)))
(assert (not (= x66 (_ bv7 8))))
(assert (not (= x67 (_ bv7 8))))
(assert (not (= x70 x71)))
(assert (not (= x70 x72)))
(assert (not (= x70 (_ bv8 8))))
(assert (not (= x70 (_ bv6 8))))
(assert (not (= x70 x75)))
(assert (not (= x70 x76)))
(assert (not (= x70 x77)))
(assert (not (= x70 (_ bv3 8))))
(assert (not (= x71 x72)))
(assert (not (= x71 (_ bv8 8))))
(assert (not (= x71 (_ bv6 8))))
(assert (not (= x71 x75)))
(assert (not (= x71 x76)))
(assert (not (= x71 x77)))
(assert (not (= x71 (_ bv3 8))))
(assert (not (= x72 (_ bv8 8))))
(assert (not (= x72 (_ bv6 8))))
(assert (not (= x72 x75)))
(assert (not (= x72 x76)))
(assert (not (= x72 x77)))
(assert (not (= x72 (_ bv3 8))))
(assert (not (= (_ bv8 8) (_ bv6 8))))
(assert (not (= (_ bv8 8) x75)))
(assert (not (= (_ bv8 8) x76)))
(assert (not (= (_ bv8 8) x77)))
(assert (not (= (_ bv8 8) (_ bv3 8))))
(assert (not (= (_ bv6 8) x75)))
(assert (not (= (_ bv6 8) x76)))
(assert (not (= (_ bv6 8) x77)))
(assert (not (= (_ bv6 8) (_ bv3 8))))
(assert (not (= x75 x76)))
(assert (not (= x75 x77)))
(assert (not (= x75 (_ bv3 8))))
(assert (not (= x76 x77)))
(assert (not (= x76 (_ bv3 8))))
(assert (not (= x77 (_ bv3 8))))
(assert (not (= (_ bv4 8) x81)))
(assert (not (= (_ bv4 8) x82)))
(assert (not (= (_ bv4 8) x83)))
(assert (not (= (_ bv4 8) (_ bv3 8))))
(assert (not (= (_ bv4 8) (_ bv5 8))))
(assert (not (= (_ bv4 8) (_ bv2 8))))
(assert (not (= (_ bv4 8) x87)))
(assert (not (= (_ bv4 8) x88)))
(assert (not (= x81 x82)))
(assert (not (= x81 x83)))
(assert (not (= x81 (_ bv3 8))))
(assert (not (= x81 (_ bv5 8))))
(assert (not (= x81 (_ bv2 8))))
(assert (not (= x81 x87)))
(assert (not (= x81 x88)))
(assert (not (= x82 x83)))
(assert (not (= x82 (_ bv3 8))))
(assert (not (= x82 (_ bv5 8))))
(assert (not (= x82 (_ bv2 8))))
(assert (not (= x82 x87)))
(assert (not (= x82 x88)))
(assert (not (= x83 (_ bv3 8))))
(assert (not (= x83 (_ bv5 8))))
(assert (not (= x83 (_ bv2 8))))
(assert (not (= x83 x87)))
(assert (not (= x83 x88)))
(assert (not (= (_ bv3 8) (_ bv5 8))))
(assert (not (= (_ bv3 8) (_ bv2 8))))
(assert (not (= (_ bv3 8) x87)))
(assert (not (= (_ bv3 8) x88)))
(assert (not (= (_ bv5 8) (_ bv2 8))))
(assert (not (= (_ bv5 8) x87)))
(assert (not (= (_ bv5 8) x88)))
(assert (not (= (_ bv2 8) x87)))
(assert (not (= (_ bv2 8) x88)))
(assert (not (= x87 x88)))
(assert (not (= (_ bv3 8) x10)))
(assert (not (= (_ bv3 8) (_ bv1 8))))
(assert (not (= (_ bv3 8) x30)))
(assert (not (= (_ bv3 8) (_ bv7 8))))
(assert (not (= (_ bv3 8) x50)))
(assert (not (= (_ bv3 8) (_ bv5 8))))
(assert (not (= (_ bv3 8) x70)))
(assert (not (= (_ bv3 8) (_ bv4 8))))
(assert (not (= x10 (_ bv1 8))))
(assert (not (= x10 x30)))
(assert (not (= x10 (_ bv7 8))))
(assert (not (= x10 x50)))
(assert (not (= x10 (_ bv5 8))))
(assert (not (= x10 x70)))
(assert (not (= x10 (_ bv4 8))))
(assert (not (= (_ bv1 8) x30)))
(assert (not (= (_ bv1 8) (_ bv7 8))))
(assert (not (= (_ bv1 8) x50)))
(assert (not (= (_ bv1 8) (_ bv5 8))))
(assert (not (= (_ bv1 8) x70)))
(assert (not (= (_ bv1 8) (_ bv4 8))))
(assert (not (= x30 (_ bv7 8))))
(assert (not (= x30 x50)))
(assert (not (= x30 (_ bv5 8))))
(assert (not (= x30 x70)))
(assert (not (= x30 (_ bv4 8))))
(assert (not (= (_ bv7 8) x50)))
(assert (not (= (_ bv7 8) (_ bv5 8))))
(assert (not (= (_ bv7 8) x70)))
(assert (not (= (_ bv7 8) (_ bv4 8))))
(assert (not (= x50 (_ bv5 8))))
(assert (not (= x50 x70)))
(assert (not (= x50 (_ bv4 8))))
(assert (not (= (_ bv5 8) x70)))
(assert (not (= (_ bv5 8) (_ bv4 8))))
(assert (not (= x70 (_ bv4 8))))
(assert (not (= (_ bv7 8) x11)))
(assert (not (= (_ bv7 8) x21)))
(assert (not (= (_ bv7 8) x31)))
(assert (not (= (_ bv7 8) (_ bv8 8))))
(assert (not (= (_ bv7 8) (_ bv9 8))))
(assert (not (= (_ bv7 8) x61)))
(assert (not (= (_ bv7 8) x71)))
(assert (not (= (_ bv7 8) x81)))
(assert (not (= x11 x21)))
(assert (not (= x11 x31)))
(assert (not (= x11 (_ bv8 8))))
(assert (not (= x11 (_ bv9 8))))
(assert (not (= x11 x61)))
(assert (not (= x11 x71)))
(assert (not (= x11 x81)))
(assert (not (= x21 x31)))
(assert (not (= x21 (_ bv8 8))))
(assert (not (= x21 (_ bv9 8))))
(assert (not (= x21 x61)))
(assert (not (= x21 x71)))
(assert (not (= x21 x81)))
(assert (not (= x31 (_ bv8 8))))
(assert (not (= x31 (_ bv9 8))))
(assert (not (= x31 x61)))
(assert (not (= x31 x71)))
(assert (not (= x31 x81)))
(assert (not (= (_ bv8 8) (_ bv9 8))))
(assert (not (= (_ bv8 8) x61)))
(assert (not (= (_ bv8 8) x71)))
(assert (not (= (_ bv8 8) x81)))
(assert (not (= (_ bv9 8) x61)))
(assert (not (= (_ bv9 8) x71)))
(assert (not (= (_ bv9 8) x81)))
(assert (not (= x61 x71)))
(assert (not (= x61 x81)))
(assert (not (= x71 x81)))
(assert (not (= x02 (_ bv9 8))))
(assert (not (= x02 x22)))
(assert (not (= x02 (_ bv5 8))))
(assert (not (= x02 (_ bv1 8))))
(assert (not (= x02 x52)))
(assert (not (= x02 (_ bv3 8))))
(assert (not (= x02 x72)))
(assert (not (= x02 x82)))
(assert (not (= (_ bv9 8) x22)))
(assert (not (= (_ bv9 8) (_ bv5 8))))
(assert (not (= (_ bv9 8) (_ bv1 8))))
(assert (not (= (_ bv9 8) x52)))
(assert (not (= (_ bv9 8) (_ bv3 8))))
(assert (not (= (_ bv9 8) x72)))
(assert (not (= (_ bv9 8) x82)))
(assert (not (= x22 (_ bv5 8))))
(assert (not (= x22 (_ bv1 8))))
(assert (not (= x22 x52)))
(assert (not (= x22 (_ bv3 8))))
(assert (not (= x22 x72)))
(assert (not (= x22 x82)))
(assert (not (= (_ bv5 8) (_ bv1 8))))
(assert (not (= (_ bv5 8) x52)))
(assert (not (= (_ bv5 8) (_ bv3 8))))
(assert (not (= (_ bv5 8) x72)))
(assert (not (= (_ bv5 8) x82)))
(assert (not (= (_ bv1 8) x52)))
(assert (not (= (_ bv1 8) (_ bv3 8))))
(assert (not (= (_ bv1 8) x72)))
(assert (not (= (_ bv1 8) x82)))
(assert (not (= x52 (_ bv3 8))))
(assert (not (= x52 x72)))
(assert (not (= x52 x82)))
(assert (not (= (_ bv3 8) x72)))
(assert (not (= (_ bv3 8) x82)))
(assert (not (= x72 x82)))
(assert (not (= (_ bv5 8) x13)))
(assert (not (= (_ bv5 8) (_ bv4 8))))
(assert (not (= (_ bv5 8) (_ bv9 8))))
(assert (not (= (_ bv5 8) x43)))
(assert (not (= (_ bv5 8) x53)))
(assert (not (= (_ bv5 8) x63)))
(assert (not (= (_ bv5 8) (_ bv8 8))))
(assert (not (= (_ bv5 8) x83)))
(assert (not (= x13 (_ bv4 8))))
(assert (not (= x13 (_ bv9 8))))
(assert (not (= x13 x43)))
(assert (not (= x13 x53)))
(assert (not (= x13 x63)))
(assert (not (= x13 (_ bv8 8))))
(assert (not (= x13 x83)))
(assert (not (= (_ bv4 8) (_ bv9 8))))
(assert (not (= (_ bv4 8) x43)))
(assert (not (= (_ bv4 8) x53)))
(assert (not (= (_ bv4 8) x63)))
(assert (not (= (_ bv4 8) (_ bv8 8))))
(assert (not (= (_ bv4 8) x83)))
(assert (not (= (_ bv9 8) x43)))
(assert (not (= (_ bv9 8) x53)))
(assert (not (= (_ bv9 8) x63)))
(assert (not (= (_ bv9 8) (_ bv8 8))))
(assert (not (= (_ bv9 8) x83)))
(assert (not (= x43 x53)))
(assert (not (= x43 x63)))
(assert (not (= x43 (_ bv8 8))))
(assert (not (= x43 x83)))
(assert (not (= x53 x63)))
(assert (not (= x53 (_ bv8 8))))
(assert (not (= x53 x83)))
(assert (not (= x63 (_ bv8 8))))
(assert (not (= x63 x83)))
(assert (not (= (_ bv8 8) x83)))
(assert (not (= x04 x14)))
(assert (not (= x04 (_ bv8 8))))
(assert (not (= x04 (_ bv4 8))))
(assert (not (= x04 x44)))
(assert (not (= x04 x54)))
(assert (not (= x04 x64)))
(assert (not (= x04 (_ bv6 8))))
(assert (not (= x04 (_ bv3 8))))
(assert (not (= x14 (_ bv8 8))))
(assert (not (= x14 (_ bv4 8))))
(assert (not (= x14 x44)))
(assert (not (= x14 x54)))
(assert (not (= x14 x64)))
(assert (not (= x14 (_ bv6 8))))
(assert (not (= x14 (_ bv3 8))))
(assert (not (= (_ bv8 8) (_ bv4 8))))
(assert (not (= (_ bv8 8) x44)))
(assert (not (= (_ bv8 8) x54)))
(assert (not (= (_ bv8 8) x64)))
(assert (not (= (_ bv8 8) (_ bv6 8))))
(assert (not (= (_ bv8 8) (_ bv3 8))))
(assert (not (= (_ bv4 8) x44)))
(assert (not (= (_ bv4 8) x54)))
(assert (not (= (_ bv4 8) x64)))
(assert (not (= (_ bv4 8) (_ bv6 8))))
(assert (not (= (_ bv4 8) (_ bv3 8))))
(assert (not (= x44 x54)))
(assert (not (= x44 x64)))
(assert (not (= x44 (_ bv6 8))))
(assert (not (= x44 (_ bv3 8))))
(assert (not (= x54 x64)))
(assert (not (= x54 (_ bv6 8))))
(assert (not (= x54 (_ bv3 8))))
(assert (not (= x64 (_ bv6 8))))
(assert (not (= x64 (_ bv3 8))))
(assert (not (= (_ bv6 8) (_ bv3 8))))
(assert (not (= x05 x15)))
(assert (not (= x05 (_ bv9 8))))
(assert (not (= x05 x35)))
(assert (not (= x05 (_ bv3 8))))
(assert (not (= x05 (_ bv2 8))))
(assert (not (= x05 (_ bv1 8))))
(assert (not (= x05 x75)))
(assert (not (= x05 (_ bv5 8))))
(assert (not (= x15 (_ bv9 8))))
(assert (not (= x15 x35)))
(assert (not (= x15 (_ bv3 8))))
(assert (not (= x15 (_ bv2 8))))
(assert (not (= x15 (_ bv1 8))))
(assert (not (= x15 x75)))
(assert (not (= x15 (_ bv5 8))))
(assert (not (= (_ bv9 8) x35)))
(assert (not (= (_ bv9 8) (_ bv3 8))))
(assert (not (= (_ bv9 8) (_ bv2 8))))
(assert (not (= (_ bv9 8) (_ bv1 8))))
(assert (not (= (_ bv9 8) x75)))
(assert (not (= (_ bv9 8) (_ bv5 8))))
(assert (not (= x35 (_ bv3 8))))
(assert (not (= x35 (_ bv2 8))))
(assert (not (= x35 (_ bv1 8))))
(assert (not (= x35 x75)))
(assert (not (= x35 (_ bv5 8))))
(assert (not (= (_ bv3 8) (_ bv2 8))))
(assert (not (= (_ bv3 8) (_ bv1 8))))
(assert (not (= (_ bv3 8) x75)))
(assert (not (= (_ bv3 8) (_ bv5 8))))
(assert (not (= (_ bv2 8) (_ bv1 8))))
(assert (not (= (_ bv2 8) x75)))
(assert (not (= (_ bv2 8) (_ bv5 8))))
(assert (not (= (_ bv1 8) x75)))
(assert (not (= (_ bv1 8) (_ bv5 8))))
(assert (not (= x75 (_ bv5 8))))
(assert (not (= x06 (_ bv6 8))))
(assert (not (= x06 x26)))
(assert (not (= x06 x36)))
(assert (not (= x06 x46)))
(assert (not (= x06 (_ bv5 8))))
(assert (not (= x06 x66)))
(assert (not (= x06 x76)))
(assert (not (= x06 (_ bv2 8))))
(assert (not (= (_ bv6 8) x26)))
(assert (not (= (_ bv6 8) x36)))
(assert (not (= (_ bv6 8) x46)))
(assert (not (= (_ bv6 8) (_ bv5 8))))
(assert (not (= (_ bv6 8) x66)))
(assert (not (= (_ bv6 8) x76)))
(assert (not (= (_ bv6 8) (_ bv2 8))))
(assert (not (= x26 x36)))
(assert (not (= x26 x46)))
(assert (not (= x26 (_ bv5 8))))
(assert (not (= x26 x66)))
(assert (not (= x26 x76)))
(assert (not (= x26 (_ bv2 8))))
(assert (not (= x36 x46)))
(assert (not (= x36 (_ bv5 8))))
(assert (not (= x36 x66)))
(assert (not (= x36 x76)))
(assert (not (= x36 (_ bv2 8))))
(assert (not (= x46 (_ bv5 8))))
(assert (not (= x46 x66)))
(assert (not (= x46 x76)))
(assert (not (= x46 (_ bv2 8))))
(assert (not (= (_ bv5 8) x66)))
(assert (not (= (_ bv5 8) x76)))
(assert (not (= (_ bv5 8) (_ bv2 8))))
(assert (not (= x66 x76)))
(assert (not (= x66 (_ bv2 8))))
(assert (not (= x76 (_ bv2 8))))
(assert (not (= (_ bv4 8) (_ bv1 8))))
(assert (not (= (_ bv4 8) x27)))
(assert (not (= (_ bv4 8) (_ bv6 8))))
(assert (not (= (_ bv4 8) x47)))
(assert (not (= (_ bv4 8) x57)))
(assert (not (= (_ bv4 8) x67)))
(assert (not (= (_ bv4 8) x77)))
(assert (not (= (_ bv4 8) x87)))
(assert (not (= (_ bv1 8) x27)))
(assert (not (= (_ bv1 8) (_ bv6 8))))
(assert (not (= (_ bv1 8) x47)))
(assert (not (= (_ bv1 8) x57)))
(assert (not (= (_ bv1 8) x67)))
(assert (not (= (_ bv1 8) x77)))
(assert (not (= (_ bv1 8) x87)))
(assert (not (= x27 (_ bv6 8))))
(assert (not (= x27 x47)))
(assert (not (= x27 x57)))
(assert (not (= x27 x67)))
(assert (not (= x27 x77)))
(assert (not (= x27 x87)))
(assert (not (= (_ bv6 8) x47)))
(assert (not (= (_ bv6 8) x57)))
(assert (not (= (_ bv6 8) x67)))
(assert (not (= (_ bv6 8) x77)))
(assert (not (= (_ bv6 8) x87)))
(assert (not (= x47 x57)))
(assert (not (= x47 x67)))
(assert (not (= x47 x77)))
(assert (not (= x47 x87)))
(assert (not (= x57 x67)))
(assert (not (= x57 x77)))
(assert (not (= x57 x87)))
(assert (not (= x67 x77)))
(assert (not (= x67 x87)))
(assert (not (= x77 x87)))
(assert (not (= x08 x18)))
(assert (not (= x08 (_ bv2 8))))
(assert (not (= x08 x38)))
(assert (not (= x08 (_ bv4 8))))
(assert (not (= x08 x58)))
(assert (not (= x08 (_ bv7 8))))
(assert (not (= x08 (_ bv3 8))))
(assert (not (= x08 x88)))
(assert (not (= x18 (_ bv2 8))))
(assert (not (= x18 x38)))
(assert (not (= x18 (_ bv4 8))))
(assert (not (= x18 x58)))
(assert (not (= x18 (_ bv7 8))))
(assert (not (= x18 (_ bv3 8))))
(assert (not (= x18 x88)))
(assert (not (= (_ bv2 8) x38)))
(assert (not (= (_ bv2 8) (_ bv4 8))))
(assert (not (= (_ bv2 8) x58)))
(assert (not (= (_ bv2 8) (_ bv7 8))))
(assert (not (= (_ bv2 8) (_ bv3 8))))
(assert (not (= (_ bv2 8) x88)))
(assert (not (= x38 (_ bv4 8))))
(assert (not (= x38 x58)))
(assert (not (= x38 (_ bv7 8))))
(assert (not (= x38 (_ bv3 8))))
(assert (not (= x38 x88)))
(assert (not (= (_ bv4 8) x58)))
(assert (not (= (_ bv4 8) (_ bv7 8))))
(assert (not (= (_ bv4 8) (_ bv3 8))))
(assert (not (= (_ bv4 8) x88)))
(assert (not (= x58 (_ bv7 8))))
(assert (not (= x58 (_ bv3 8))))
(assert (not (= x58 x88)))
(assert (not (= (_ bv7 8) (_ bv3 8))))
(assert (not (= (_ bv7 8) x88)))
(assert (not (= (_ bv3 8) x88)))
(assert (not (= (_ bv3 8) (_ bv7 8))))
(assert (not (= (_ bv3 8) x02)))
(assert (not (= (_ bv3 8) x10)))
(assert (not (= (_ bv3 8) x11)))
(assert (not (= (_ bv3 8) (_ bv9 8))))
(assert (not (= (_ bv3 8) (_ bv1 8))))
(assert (not (= (_ bv3 8) x21)))
(assert (not (= (_ bv3 8) x22)))
(assert (not (= (_ bv7 8) x02)))
(assert (not (= (_ bv7 8) x10)))
(assert (not (= (_ bv7 8) x11)))
(assert (not (= (_ bv7 8) (_ bv9 8))))
(assert (not (= (_ bv7 8) (_ bv1 8))))
(assert (not (= (_ bv7 8) x21)))
(assert (not (= (_ bv7 8) x22)))
(assert (not (= x02 x10)))
(assert (not (= x02 x11)))
(assert (not (= x02 (_ bv9 8))))
(assert (not (= x02 (_ bv1 8))))
(assert (not (= x02 x21)))
(assert (not (= x02 x22)))
(assert (not (= x10 x11)))
(assert (not (= x10 (_ bv9 8))))
(assert (not (= x10 (_ bv1 8))))
(assert (not (= x10 x21)))
(assert (not (= x10 x22)))
(assert (not (= x11 (_ bv9 8))))
(assert (not (= x11 (_ bv1 8))))
(assert (not (= x11 x21)))
(assert (not (= x11 x22)))
(assert (not (= (_ bv9 8) (_ bv1 8))))
(assert (not (= (_ bv9 8) x21)))
(assert (not (= (_ bv9 8) x22)))
(assert (not (= (_ bv1 8) x21)))
(assert (not (= (_ bv1 8) x22)))
(assert (not (= x21 x22)))
(assert (not (= (_ bv5 8) x04)))
(assert (not (= (_ bv5 8) x05)))
(assert (not (= (_ bv5 8) x13)))
(assert (not (= (_ bv5 8) x14)))
(assert (not (= (_ bv5 8) x15)))
(assert (not (= (_ bv5 8) (_ bv4 8))))
(assert (not (= (_ bv5 8) (_ bv8 8))))
(assert (not (= (_ bv5 8) (_ bv9 8))))
(assert (not (= x04 x05)))
(assert (not (= x04 x13)))
(assert (not (= x04 x14)))
(assert (not (= x04 x15)))
(assert (not (= x04 (_ bv4 8))))
(assert (not (= x04 (_ bv8 8))))
(assert (not (= x04 (_ bv9 8))))
(assert (not (= x05 x13)))
(assert (not (= x05 x14)))
(assert (not (= x05 x15)))
(assert (not (= x05 (_ bv4 8))))
(assert (not (= x05 (_ bv8 8))))
(assert (not (= x05 (_ bv9 8))))
(assert (not (= x13 x14)))
(assert (not (= x13 x15)))
(assert (not (= x13 (_ bv4 8))))
(assert (not (= x13 (_ bv8 8))))
(assert (not (= x13 (_ bv9 8))))
(assert (not (= x14 x15)))
(assert (not (= x14 (_ bv4 8))))
(assert (not (= x14 (_ bv8 8))))
(assert (not (= x14 (_ bv9 8))))
(assert (not (= x15 (_ bv4 8))))
(assert (not (= x15 (_ bv8 8))))
(assert (not (= x15 (_ bv9 8))))
(assert (not (= (_ bv4 8) (_ bv8 8))))
(assert (not (= (_ bv4 8) (_ bv9 8))))
(assert (not (= (_ bv8 8) (_ bv9 8))))
(assert (not (= x06 (_ bv4 8))))
(assert (not (= x06 x08)))
(assert (not (= x06 (_ bv6 8))))
(assert (not (= x06 (_ bv1 8))))
(assert (not (= x06 x18)))
(assert (not (= x06 x26)))
(assert (not (= x06 x27)))
(assert (not (= x06 (_ bv2 8))))
(assert (not (= (_ bv4 8) x08)))
(assert (not (= (_ bv4 8) (_ bv6 8))))
(assert (not (= (_ bv4 8) (_ bv1 8))))
(assert (not (= (_ bv4 8) x18)))
(assert (not (= (_ bv4 8) x26)))
(assert (not (= (_ bv4 8) x27)))
(assert (not (= (_ bv4 8) (_ bv2 8))))
(assert (not (= x08 (_ bv6 8))))
(assert (not (= x08 (_ bv1 8))))
(assert (not (= x08 x18)))
(assert (not (= x08 x26)))
(assert (not (= x08 x27)))
(assert (not (= x08 (_ bv2 8))))
(assert (not (= (_ bv6 8) (_ bv1 8))))
(assert (not (= (_ bv6 8) x18)))
(assert (not (= (_ bv6 8) x26)))
(assert (not (= (_ bv6 8) x27)))
(assert (not (= (_ bv6 8) (_ bv2 8))))
(assert (not (= (_ bv1 8) x18)))
(assert (not (= (_ bv1 8) x26)))
(assert (not (= (_ bv1 8) x27)))
(assert (not (= (_ bv1 8) (_ bv2 8))))
(assert (not (= x18 x26)))
(assert (not (= x18 x27)))
(assert (not (= x18 (_ bv2 8))))
(assert (not (= x26 x27)))
(assert (not (= x26 (_ bv2 8))))
(assert (not (= x27 (_ bv2 8))))
(assert (not (= x30 x31)))
(assert (not (= x30 (_ bv5 8))))
(assert (not (= x30 (_ bv7 8))))
(assert (not (= x30 (_ bv8 8))))
(assert (not (= x30 (_ bv1 8))))
(assert (not (= x30 x50)))
(assert (not (= x30 (_ bv9 8))))
(assert (not (= x30 x52)))
(assert (not (= x31 (_ bv5 8))))
(assert (not (= x31 (_ bv7 8))))
(assert (not (= x31 (_ bv8 8))))
(assert (not (= x31 (_ bv1 8))))
(assert (not (= x31 x50)))
(assert (not (= x31 (_ bv9 8))))
(assert (not (= x31 x52)))
(assert (not (= (_ bv5 8) (_ bv7 8))))
(assert (not (= (_ bv5 8) (_ bv8 8))))
(assert (not (= (_ bv5 8) (_ bv1 8))))
(assert (not (= (_ bv5 8) x50)))
(assert (not (= (_ bv5 8) (_ bv9 8))))
(assert (not (= (_ bv5 8) x52)))
(assert (not (= (_ bv7 8) (_ bv8 8))))
(assert (not (= (_ bv7 8) (_ bv1 8))))
(assert (not (= (_ bv7 8) x50)))
(assert (not (= (_ bv7 8) (_ bv9 8))))
(assert (not (= (_ bv7 8) x52)))
(assert (not (= (_ bv8 8) (_ bv1 8))))
(assert (not (= (_ bv8 8) x50)))
(assert (not (= (_ bv8 8) (_ bv9 8))))
(assert (not (= (_ bv8 8) x52)))
(assert (not (= (_ bv1 8) x50)))
(assert (not (= (_ bv1 8) (_ bv9 8))))
(assert (not (= (_ bv1 8) x52)))
(assert (not (= x50 (_ bv9 8))))
(assert (not (= x50 x52)))
(assert (not (= (_ bv9 8) x52)))
(assert (not (= (_ bv9 8) (_ bv4 8))))
(assert (not (= (_ bv9 8) x35)))
(assert (not (= (_ bv9 8) x43)))
(assert (not (= (_ bv9 8) x44)))
(assert (not (= (_ bv9 8) (_ bv3 8))))
(assert (not (= (_ bv9 8) x53)))
(assert (not (= (_ bv9 8) x54)))
(assert (not (= (_ bv9 8) (_ bv2 8))))
(assert (not (= (_ bv4 8) x35)))
(assert (not (= (_ bv4 8) x43)))
(assert (not (= (_ bv4 8) x44)))
(assert (not (= (_ bv4 8) (_ bv3 8))))
(assert (not (= (_ bv4 8) x53)))
(assert (not (= (_ bv4 8) x54)))
(assert (not (= (_ bv4 8) (_ bv2 8))))
(assert (not (= x35 x43)))
(assert (not (= x35 x44)))
(assert (not (= x35 (_ bv3 8))))
(assert (not (= x35 x53)))
(assert (not (= x35 x54)))
(assert (not (= x35 (_ bv2 8))))
(assert (not (= x43 x44)))
(assert (not (= x43 (_ bv3 8))))
(assert (not (= x43 x53)))
(assert (not (= x43 x54)))
(assert (not (= x43 (_ bv2 8))))
(assert (not (= x44 (_ bv3 8))))
(assert (not (= x44 x53)))
(assert (not (= x44 x54)))
(assert (not (= x44 (_ bv2 8))))
(assert (not (= (_ bv3 8) x53)))
(assert (not (= (_ bv3 8) x54)))
(assert (not (= (_ bv3 8) (_ bv2 8))))
(assert (not (= x53 x54)))
(assert (not (= x53 (_ bv2 8))))
(assert (not (= x54 (_ bv2 8))))
(assert (not (= x36 (_ bv6 8))))
(assert (not (= x36 x38)))
(assert (not (= x36 x46)))
(assert (not (= x36 x47)))
(assert (not (= x36 (_ bv4 8))))
(assert (not (= x36 (_ bv5 8))))
(assert (not (= x36 x57)))
(assert (not (= x36 x58)))
(assert (not (= (_ bv6 8) x38)))
(assert (not (= (_ bv6 8) x46)))
(assert (not (= (_ bv6 8) x47)))
(assert (not (= (_ bv6 8) (_ bv4 8))))
(assert (not (= (_ bv6 8) (_ bv5 8))))
(assert (not (= (_ bv6 8) x57)))
(assert (not (= (_ bv6 8) x58)))
(assert (not (= x38 x46)))
(assert (not (= x38 x47)))
(assert (not (= x38 (_ bv4 8))))
(assert (not (= x38 (_ bv5 8))))
(assert (not (= x38 x57)))
(assert (not (= x38 x58)))
(assert (not (= x46 x47)))
(assert (not (= x46 (_ bv4 8))))
(assert (not (= x46 (_ bv5 8))))
(assert (not (= x46 x57)))
(assert (not (= x46 x58)))
(assert (not (= x47 (_ bv4 8))))
(assert (not (= x47 (_ bv5 8))))
(assert (not (= x47 x57)))
(assert (not (= x47 x58)))
(assert (not (= (_ bv4 8) (_ bv5 8))))
(assert (not (= (_ bv4 8) x57)))
(assert (not (= (_ bv4 8) x58)))
(assert (not (= (_ bv5 8) x57)))
(assert (not (= (_ bv5 8) x58)))
(assert (not (= x57 x58)))
(assert (not (= (_ bv5 8) x61)))
(assert (not (= (_ bv5 8) (_ bv3 8))))
(assert (not (= (_ bv5 8) x70)))
(assert (not (= (_ bv5 8) x71)))
(assert (not (= (_ bv5 8) x72)))
(assert (not (= (_ bv5 8) (_ bv4 8))))
(assert (not (= (_ bv5 8) x81)))
(assert (not (= (_ bv5 8) x82)))
(assert (not (= x61 (_ bv3 8))))
(assert (not (= x61 x70)))
(assert (not (= x61 x71)))
(assert (not (= x61 x72)))
(assert (not (= x61 (_ bv4 8))))
(assert (not (= x61 x81)))
(assert (not (= x61 x82)))
(assert (not (= (_ bv3 8) x70)))
(assert (not (= (_ bv3 8) x71)))
(assert (not (= (_ bv3 8) x72)))
(assert (not (= (_ bv3 8) (_ bv4 8))))
(assert (not (= (_ bv3 8) x81)))
(assert (not (= (_ bv3 8) x82)))
(assert (not (= x70 x71)))
(assert (not (= x70 x72)))
(assert (not (= x70 (_ bv4 8))))
(assert (not (= x70 x81)))
(assert (not (= x70 x82)))
(assert (not (= x71 x72)))
(assert (not (= x71 (_ bv4 8))))
(assert (not (= x71 x81)))
(assert (not (= x71 x82)))
(assert (not (= x72 (_ bv4 8))))
(assert (not (= x72 x81)))
(assert (not (= x72 x82)))
(assert (not (= (_ bv4 8) x81)))
(assert (not (= (_ bv4 8) x82)))
(assert (not (= x81 x82)))
(assert (not (= x63 x64)))
(assert (not (= x63 (_ bv1 8))))
(assert (not (= x63 (_ bv8 8))))
(assert (not (= x63 (_ bv6 8))))
(assert (not (= x63 x75)))
(assert (not (= x63 x83)))
(assert (not (= x63 (_ bv3 8))))
(assert (not (= x63 (_ bv5 8))))
(assert (not (= x64 (_ bv1 8))))
(assert (not (= x64 (_ bv8 8))))
(assert (not (= x64 (_ bv6 8))))
(assert (not (= x64 x75)))
(assert (not (= x64 x83)))
(assert (not (= x64 (_ bv3 8))))
(assert (not (= x64 (_ bv5 8))))
(assert (not (= (_ bv1 8) (_ bv8 8))))
(assert (not (= (_ bv1 8) (_ bv6 8))))
(assert (not (= (_ bv1 8) x75)))
(assert (not (= (_ bv1 8) x83)))
(assert (not (= (_ bv1 8) (_ bv3 8))))
(assert (not (= (_ bv1 8) (_ bv5 8))))
(assert (not (= (_ bv8 8) (_ bv6 8))))
(assert (not (= (_ bv8 8) x75)))
(assert (not (= (_ bv8 8) x83)))
(assert (not (= (_ bv8 8) (_ bv3 8))))
(assert (not (= (_ bv8 8) (_ bv5 8))))
(assert (not (= (_ bv6 8) x75)))
(assert (not (= (_ bv6 8) x83)))
(assert (not (= (_ bv6 8) (_ bv3 8))))
(assert (not (= (_ bv6 8) (_ bv5 8))))
(assert (not (= x75 x83)))
(assert (not (= x75 (_ bv3 8))))
(assert (not (= x75 (_ bv5 8))))
(assert (not (= x83 (_ bv3 8))))
(assert (not (= x83 (_ bv5 8))))
(assert (not (= (_ bv3 8) (_ bv5 8))))
(assert (not (= x66 x67)))
(assert (not (= x66 (_ bv7 8))))
(assert (not (= x66 x76)))
(assert (not (= x66 x77)))
(assert (not (= x66 (_ bv3 8))))
(assert (not (= x66 (_ bv2 8))))
(assert (not (= x66 x87)))
(assert (not (= x66 x88)))
(assert (not (= x67 (_ bv7 8))))
(assert (not (= x67 x76)))
(assert (not (= x67 x77)))
(assert (not (= x67 (_ bv3 8))))
(assert (not (= x67 (_ bv2 8))))
(assert (not (= x67 x87)))
(assert (not (= x67 x88)))
(assert (not (= (_ bv7 8) x76)))
(assert (not (= (_ bv7 8) x77)))
(assert (not (= (_ bv7 8) (_ bv3 8))))
(assert (not (= (_ bv7 8) (_ bv2 8))))
(assert (not (= (_ bv7 8) x87)))
(assert (not (= (_ bv7 8) x88)))
(assert (not (= x76 x77)))
(assert (not (= x76 (_ bv3 8))))
(assert (not (= x76 (_ bv2 8))))
(assert (not (= x76 x87)))
(assert (not (= x76 x88)))
(assert (not (= x77 (_ bv3 8))))
(assert (not (= x77 (_ bv2 8))))
(assert (not (= x77 x87)))
(assert (not (= x77 x88)))
(assert (not (= (_ bv3 8) (_ bv2 8))))
(assert (not (= (_ bv3 8) x87)))
(assert (not (= (_ bv3 8) x88)))
(assert (not (= (_ bv2 8) x87)))
(assert (not (= (_ bv2 8) x88)))
(assert (not (= x87 x88)))
(check-sat)
(exit)
